
Gurobi 7.0.2 (linux64, Python) logging started Fri Apr 21 19:26:40 2017


Gurobi 7.0.2 (linux64, Python) logging started Fri Apr 21 19:36:14 2017


Gurobi 7.0.2 (linux64, Python) logging started Fri Apr 21 19:37:03 2017


Gurobi 7.0.2 (linux64, Python) logging started Fri Apr 21 20:00:02 2017


Gurobi 7.0.2 (linux64, Python) logging started Fri Apr 21 20:45:25 2017


Gurobi 7.0.2 (linux64, Python) logging started Tue May  2 11:56:49 2017


Gurobi 7.0.2 (linux64, Python) logging started Fri May 19 12:43:14 2017


Gurobi 7.0.2 (linux64, Python) logging started Fri May 19 13:49:33 2017


Gurobi 7.0.2 (linux64, Python) logging started Fri May 19 13:53:27 2017


Gurobi 7.0.2 (linux64, Python) logging started Fri May 19 13:54:19 2017


Gurobi 7.0.2 (linux64, Python) logging started Fri May 19 13:54:31 2017

